(set-info :smt-lib-version 2.6)
(set-logic QF_LRA)
(set-info :source | Clock Synchronization. Bruno Dutertre (bruno@csl.sri.com) |)
(set-info :category "industrial")
(set-info :status unsat)
(declare-fun x_0 () Real)
(declare-fun x_1 () Real)
(declare-fun x_2 () Real)
(declare-fun x_3 () Real)
(declare-fun x_4 () Real)
(declare-fun x_5 () Real)
(declare-fun x_6 () Real)
(declare-fun x_7 () Real)
(declare-fun x_8 () Real)
(declare-fun x_9 () Real)
(declare-fun x_10 () Real)
(declare-fun x_11 () Real)
(declare-fun x_12 () Real)
(declare-fun x_13 () Real)
(declare-fun x_14 () Real)
(declare-fun x_15 () Real)
(declare-fun x_16 () Real)
(declare-fun x_17 () Real)
(declare-fun x_18 () Real)
(declare-fun x_19 () Real)
(declare-fun x_20 () Real)
(declare-fun x_21 () Real)
(declare-fun x_22 () Real)
(declare-fun x_23 () Real)
(declare-fun x_24 () Real)
(declare-fun x_25 () Real)
(declare-fun x_26 () Real)
(declare-fun x_27 () Real)
(declare-fun x_28 () Real)
(declare-fun x_29 () Real)
(declare-fun x_30 () Real)
(declare-fun x_31 () Real)
(declare-fun x_32 () Real)
(declare-fun x_33 () Real)
(declare-fun x_34 () Real)
(declare-fun x_35 () Real)
(declare-fun x_36 () Real)
(declare-fun x_37 () Real)
(declare-fun x_38 () Real)
(declare-fun x_39 () Real)
(declare-fun x_40 () Real)
(declare-fun x_41 () Real)
(declare-fun x_42 () Real)
(declare-fun x_43 () Real)
(declare-fun x_44 () Real)
(declare-fun x_45 () Real)
(declare-fun x_46 () Real)
(declare-fun x_47 () Real)
(declare-fun x_48 () Real)
(declare-fun x_49 () Real)
(declare-fun x_50 () Real)
(declare-fun x_51 () Real)
(declare-fun x_52 () Real)
(declare-fun x_53 () Real)
(declare-fun x_54 () Real)
(declare-fun x_55 () Real)
(declare-fun x_56 () Real)
(declare-fun x_57 () Real)
(declare-fun x_58 () Real)
(declare-fun x_59 () Real)
(declare-fun x_60 () Real)
(declare-fun x_61 () Real)
(declare-fun x_62 () Real)
(declare-fun x_63 () Real)
(declare-fun x_64 () Real)
(declare-fun x_65 () Real)
(declare-fun x_66 () Real)
(declare-fun x_67 () Real)
(declare-fun x_68 () Real)
(declare-fun x_69 () Real)
(declare-fun x_70 () Real)
(declare-fun x_71 () Real)
(declare-fun x_72 () Real)
(declare-fun x_73 () Real)
(declare-fun x_74 () Real)
(declare-fun x_75 () Real)
(declare-fun x_76 () Real)
(declare-fun x_77 () Real)
(declare-fun x_78 () Real)
(declare-fun x_79 () Real)
(declare-fun x_80 () Real)
(declare-fun x_81 () Real)
(declare-fun x_82 () Real)
(declare-fun x_83 () Real)
(declare-fun x_84 () Real)
(declare-fun x_85 () Real)
(declare-fun x_86 () Real)
(declare-fun x_87 () Real)
(declare-fun x_88 () Real)
(declare-fun x_89 () Real)
(declare-fun x_90 () Real)
(declare-fun x_91 () Real)
(declare-fun x_92 () Real)
(declare-fun x_93 () Real)
(declare-fun x_94 () Real)
(declare-fun x_95 () Real)
(declare-fun x_96 () Real)
(declare-fun x_97 () Real)
(declare-fun x_98 () Real)
(declare-fun x_99 () Real)
(declare-fun x_100 () Real)
(declare-fun x_101 () Real)
(declare-fun x_102 () Real)
(declare-fun x_103 () Real)
(declare-fun x_104 () Real)
(declare-fun x_105 () Real)
(declare-fun x_106 () Real)
(declare-fun x_107 () Real)
(declare-fun x_108 () Real)
(declare-fun x_109 () Real)
(declare-fun x_110 () Real)
(declare-fun x_111 () Real)
(declare-fun x_112 () Real)
(declare-fun x_113 () Real)
(declare-fun x_114 () Real)
(declare-fun x_115 () Real)
(declare-fun x_116 () Real)
(declare-fun x_117 () Real)
(declare-fun x_118 () Real)
(declare-fun x_119 () Real)
(declare-fun x_120 () Real)
(declare-fun x_121 () Real)
(declare-fun x_122 () Real)
(declare-fun x_123 () Real)
(declare-fun x_124 () Real)
(declare-fun x_125 () Real)
(declare-fun x_126 () Real)
(declare-fun x_127 () Real)
(declare-fun x_128 () Real)
(declare-fun x_129 () Real)
(declare-fun x_130 () Real)
(declare-fun x_131 () Real)
(declare-fun x_132 () Real)
(declare-fun x_133 () Real)
(declare-fun x_134 () Real)
(declare-fun x_135 () Real)
(declare-fun x_136 () Real)
(declare-fun x_137 () Real)
(declare-fun x_138 () Real)
(declare-fun x_139 () Real)
(declare-fun x_140 () Real)
(declare-fun x_141 () Real)
(declare-fun x_142 () Real)
(declare-fun x_143 () Real)
(declare-fun x_144 () Real)
(declare-fun x_145 () Real)
(declare-fun x_146 () Real)
(declare-fun x_147 () Real)
(declare-fun x_148 () Real)
(declare-fun x_149 () Real)
(declare-fun x_150 () Real)
(declare-fun x_151 () Real)
(declare-fun x_152 () Real)
(declare-fun x_153 () Real)
(assert (let ((?v_55 (= x_58 x_8)) (?v_68 (= x_60 x_1)) (?v_13 (= x_62 x_2)) (?v_20 (= x_63 x_3)) (?v_27 (= x_64 x_4)) (?v_34 (= x_65 x_5)) (?v_41 (= x_66 x_6)) (?v_48 (= x_67 x_7)) (?v_119 (= x_11 x_19))) (let ((?v_111 (not ?v_119)) (?v_110 (+ (+ x_19 x_9) x_10))) (let ((?v_160 (= x_11 ?v_110)) (?v_122 (= x_12 x_19))) (let ((?v_112 (not ?v_122)) (?v_164 (= x_12 ?v_110)) (?v_125 (= x_13 x_19))) (let ((?v_113 (not ?v_125)) (?v_168 (= x_13 ?v_110)) (?v_128 (= x_14 x_19))) (let ((?v_114 (not ?v_128)) (?v_172 (= x_14 ?v_110)) (?v_131 (= x_15 x_19))) (let ((?v_115 (not ?v_131)) (?v_176 (= x_15 ?v_110)) (?v_134 (= x_16 x_19))) (let ((?v_116 (not ?v_134)) (?v_180 (= x_16 ?v_110)) (?v_137 (= x_17 x_19))) (let ((?v_117 (not ?v_137)) (?v_184 (= x_17 ?v_110)) (?v_140 (= x_18 x_19))) (let ((?v_118 (not ?v_140)) (?v_188 (= x_18 ?v_110)) (?v_159 (not (<= x_61 x_19))) (?v_163 (not (<= x_52 x_19))) (?v_167 (not (<= x_53 x_19))) (?v_171 (not (<= x_54 x_19))) (?v_175 (not (<= x_55 x_19))) (?v_179 (not (<= x_56 x_19))) (?v_183 (not (<= x_57 x_19))) (?v_187 (not (<= x_59 x_19)))) (let ((?v_191 (or ?v_159 ?v_160)) (?v_194 (or ?v_163 ?v_164)) (?v_197 (or ?v_167 ?v_168)) (?v_200 (or ?v_171 ?v_172)) (?v_203 (or ?v_175 ?v_176)) (?v_206 (or ?v_179 ?v_180)) (?v_209 (or ?v_183 ?v_184)) (?v_212 (or ?v_187 ?v_188)) (?v_5 (= x_44 0)) (?v_14 (= x_45 0)) (?v_21 (= x_46 0)) (?v_28 (= x_47 0)) (?v_35 (= x_48 0)) (?v_42 (= x_49 0)) (?v_49 (= x_50 0)) (?v_56 (= x_51 0)) (?v_4 (= x_11 x_9)) (?v_15 (= x_12 x_9)) (?v_22 (= x_13 x_9)) (?v_29 (= x_14 x_9)) (?v_36 (= x_15 x_9)) (?v_43 (= x_16 x_9)) (?v_50 (= x_17 x_9)) (?v_57 (= x_18 x_9)) (?v_69 (= x_61 1)) (?v_16 (= x_52 1)) (?v_23 (= x_53 1)) (?v_30 (= x_54 1)) (?v_37 (= x_55 1)) (?v_44 (= x_56 1)) (?v_51 (= x_57 1)) (?v_58 (= x_59 1)) (?v_10 (= x_23 0)) (?v_17 (= x_26 0)) (?v_24 (= x_29 0)) (?v_31 (= x_32 0)) (?v_38 (= x_35 0)) (?v_45 (= x_38 0)) (?v_52 (= x_41 0)) (?v_59 (= x_22 0)) (?v_9 (= x_24 0)) (?v_18 (= x_27 0)) (?v_25 (= x_30 0)) (?v_32 (= x_33 0)) (?v_39 (= x_36 0)) (?v_46 (= x_39 0)) (?v_53 (= x_42 0)) (?v_60 (= x_21 0)) (?v_11 (= x_25 0)) (?v_19 (= x_28 0)) (?v_26 (= x_31 0)) (?v_33 (= x_34 0)) (?v_40 (= x_37 0)) (?v_47 (= x_40 0)) (?v_54 (= x_43 0)) (?v_61 (= x_20 0)) (?v_6 (= 1 x_9)) (?v_3 (+ 1 1))) (let ((?v_8 (= x_61 ?v_3)) (?v_7 (= (+ x_9 x_10) 1))) (let ((?v_12 (and (not ?v_6) (not ?v_7))) (?v_67 (= x_52 ?v_3)) (?v_71 (= x_53 ?v_3)) (?v_73 (= x_54 ?v_3)) (?v_75 (= x_55 ?v_3)) (?v_77 (= x_56 ?v_3)) (?v_79 (= x_57 ?v_3)) (?v_81 (= x_59 ?v_3)) (?v_98 (+ x_0 x_9))) (let ((?v_99 (<= x_11 ?v_98)) (?v_100 (<= x_12 ?v_98)) (?v_101 (<= x_13 ?v_98)) (?v_102 (<= x_14 ?v_98)) (?v_103 (<= x_15 ?v_98)) (?v_104 (<= x_16 ?v_98)) (?v_105 (<= x_17 ?v_98)) (?v_106 (<= x_18 ?v_98)) (?v_225 (not (<= (- ?v_98 x_152) 1))) (?v_226 (not (>= (- ?v_98 x_153) 1))) (?v_232 (- 1 1))) (let ((?v_227 (not (<= ?v_232 x_151))) (?v_231 (= x_9 ?v_98))) (let ((?v_230 (not ?v_231)) (?v_228 (+ (+ ?v_98 x_9) x_10))) (let ((?v_257 (= x_9 ?v_228))) (let ((?v_229 (and (or ?v_230 (not (>= (+ ?v_98 x_10) 1))) (not ?v_257))) (?v_256 (not (>= ?v_98 1)))) (let ((?v_245 (and ?v_231 ?v_256)) (?v_246 (< x_0 0)) (?v_261 (or ?v_256 ?v_257)) (?v_262 (- 0 x_1))) (let ((?v_258 (* ?v_262 1000)) (?v_272 (- 0 x_8))) (let ((?v_259 (* ?v_272 1000)) (?v_273 (+ 0 x_10))) (let ((?v_274 (and ?v_257 (not (= ?v_273 0)))) (?v_275 (- 0 0)) (?v_2 (* x_44 2)) (?v_62 (- ?v_3 1)) (?v_64 (+ ?v_3 1)) (?v_65 (+ ?v_273 1)) (?v_66 (+ (+ x_9 x_9) x_10)) (?v_63 (* x_45 2)) (?v_70 (* x_46 2)) (?v_72 (* x_47 2)) (?v_74 (* x_48 2)) (?v_76 (* x_49 2)) (?v_78 (* x_50 2)) (?v_80 (* x_51 2)) (?v_82 (- x_61 x_68)) (?v_83 (- x_52 x_68)) (?v_84 (- x_53 x_68)) (?v_85 (- x_54 x_68)) (?v_86 (- x_55 x_68)) (?v_87 (- x_56 x_68)) (?v_88 (- x_57 x_68)) (?v_89 (- x_59 x_68)) (?v_90 (+ x_61 x_68)) (?v_91 (+ x_52 x_68)) (?v_92 (+ x_53 x_68)) (?v_93 (+ x_54 x_68)) (?v_94 (+ x_55 x_68)) (?v_95 (+ x_56 x_68)) (?v_96 (+ x_57 x_68)) (?v_97 (+ x_59 x_68)) (?v_107 (- x_19 x_152)) (?v_108 (- x_19 x_153)) (?v_109 (+ x_19 x_10)) (?v_120 (- x_60 x_143)) (?v_121 (- x_61 x_135)) (?v_123 (- x_62 x_144)) (?v_124 (- x_52 x_136)) (?v_126 (- x_63 x_145)) (?v_127 (- x_53 x_137)) (?v_129 (- x_64 x_146)) (?v_130 (- x_54 x_138)) (?v_132 (- x_65 x_147)) (?v_133 (- x_55 x_139)) (?v_135 (- x_66 x_148)) (?v_136 (- x_56 x_140)) (?v_138 (- x_67 x_149)) (?v_139 (- x_57 x_141)) (?v_141 (- x_58 x_150)) (?v_142 (- x_59 x_142)) (?v_143 (- x_60 x_25)) (?v_144 (- x_61 x_19)) (?v_145 (- x_62 x_28)) (?v_146 (- x_52 x_19)) (?v_147 (- x_63 x_31)) (?v_148 (- x_53 x_19)) (?v_149 (- x_64 x_34)) (?v_150 (- x_54 x_19)) (?v_151 (- x_65 x_37)) (?v_152 (- x_55 x_19)) (?v_153 (- x_66 x_40)) (?v_154 (- x_56 x_19)) (?v_155 (- x_67 x_43)) (?v_156 (- x_57 x_19)) (?v_157 (- x_58 x_20)) (?v_158 (- x_59 x_19)) (?v_192 (- x_25 x_143))) (let ((?v_161 (* ?v_192 1000)) (?v_162 (* (- x_25 x_150) 1000)) (?v_165 (* (- x_28 x_143) 1000)) (?v_166 (* (- x_28 x_150) 1000)) (?v_169 (* (- x_31 x_143) 1000)) (?v_170 (* (- x_31 x_150) 1000)) (?v_173 (* (- x_34 x_143) 1000)) (?v_174 (* (- x_34 x_150) 1000)) (?v_177 (* (- x_37 x_143) 1000)) (?v_178 (* (- x_37 x_150) 1000)) (?v_181 (* (- x_40 x_143) 1000)) (?v_182 (* (- x_40 x_150) 1000)) (?v_185 (* (- x_43 x_143) 1000)) (?v_186 (* (- x_43 x_150) 1000)) (?v_189 (* (- x_20 x_143) 1000)) (?v_213 (- x_20 x_150))) (let ((?v_190 (* ?v_213 1000)) (?v_193 (- x_19 x_135)) (?v_195 (- x_28 x_144)) (?v_196 (- x_19 x_136)) (?v_198 (- x_31 x_145)) (?v_199 (- x_19 x_137)) (?v_201 (- x_34 x_146)) (?v_202 (- x_19 x_138)) (?v_204 (- x_37 x_147)) (?v_205 (- x_19 x_139)) (?v_207 (- x_40 x_148)) (?v_208 (- x_19 x_140)) (?v_210 (- x_43 x_149)) (?v_211 (- x_19 x_141)) (?v_214 (- x_19 x_142)) (?v_215 (- x_24 x_25)) (?v_217 (- x_27 x_28)) (?v_219 (- x_30 x_31)) (?v_220 (- x_33 x_34)) (?v_221 (- x_36 x_37)) (?v_222 (- x_39 x_40)) (?v_223 (- x_42 x_43)) (?v_224 (- x_21 x_20)) (?v_233 (- x_1 x_1)) (?v_235 (- x_2 x_2)) (?v_237 (- x_3 x_3)) (?v_238 (- x_4 x_4)) (?v_239 (- x_5 x_5)) (?v_240 (- x_6 x_6)) (?v_241 (- x_7 x_7)) (?v_242 (- x_8 x_8)) (?v_243 (- x_1 0)) (?v_244 (- 1 ?v_98)) (?v_248 (- x_2 0)) (?v_250 (- x_3 0)) (?v_251 (- x_4 0)) (?v_252 (- x_5 0)) (?v_253 (- x_6 0)) (?v_254 (- x_7 0)) (?v_255 (- x_8 0)) (?v_263 (- ?v_98 1)) (?v_265 (- 0 x_2)) (?v_267 (- 0 x_3)) (?v_268 (- 0 x_4)) (?v_269 (- 0 x_5)) (?v_270 (- 0 x_6)) (?v_271 (- 0 x_7)) (?v_0 (+ x_0 (/ 999 1000))) (?v_1 (+ x_0 (/ 1001 1000))) (?v_216 (* (* x_10 999) (/ 1 1000))) (?v_218 (* (* x_10 1001) (/ 1 1000))) (?v_234 (* (* ?v_232 999) (/ 1 1000))) (?v_236 (* (* ?v_232 1001) (/ 1 1000)))) (let ((?v_247 (* (* ?v_244 999) (/ 1 1000))) (?v_249 (* (* ?v_244 1001) (/ 1 1000))) (?v_260 (and ?v_261 (or (not (>= (+ (+ (* (* (+ (+ (+ 1 (* ?v_258 (/ 1 999))) 1) (* ?v_259 (/ 1 999))) 1) (/ 1 2)) x_68) (/ 3001 1998)) 0)) (> (- (- (* (* (+ (+ (+ 1 (* ?v_258 (/ 1 1001))) 1) (* ?v_259 (/ 1 1001))) 1) (/ 1 2)) x_68) (/ 1 2)) 0)))) (?v_264 (* (* ?v_263 999) (/ 1 1000))) (?v_266 (* (* ?v_263 1001) (/ 1 1000))) (?v_276 (and ?v_257 (or (not (<= ?v_216 ?v_275)) (not (<= ?v_275 ?v_218)))))) (and (and (and (and (and (and (and (and (and (and (and (and (and (and (and (and (and (and (and (and (and (and (and (and (and (and (and (not (<= x_9 0)) (not (<= x_10 0))) (not (<= x_68 0))) (not (< x_151 (+ x_68 (* (* (+ (* (* x_10 1) (/ 1 2)) 1) 1001) (/ 1 999)))))) (< x_152 (- (* (* (- (- x_10 x_151) 1) 999) (/ 1 2)) 1))) (not (< x_152 (* (* (+ (+ (+ x_9 x_68) x_151) (/ 1501 1000)) 1001) (/ 1 999))))) (not (<= x_153 0))) (<= x_153 (- x_9 (+ (+ x_68 (* (* (+ x_10 2) 1001) (/ 1 999))) (/ 1 2))))) (= x_0 0)) (<= ?v_0 x_1)) (<= x_1 ?v_1)) (<= ?v_0 x_2)) (<= x_2 ?v_1)) (<= ?v_0 x_3)) (<= x_3 ?v_1)) (<= ?v_0 x_4)) (<= x_4 ?v_1)) (<= ?v_0 x_5)) (<= x_5 ?v_1)) (<= ?v_0 x_6)) (<= x_6 ?v_1)) (<= ?v_0 x_7)) (<= x_7 ?v_1)) (<= ?v_0 x_8)) (<= x_8 ?v_1)) (or (and (and (and (and (and (and (and (and (and (and (and (and (and (and (and (and (and (and (and (and (and (and (and (and (and (and (and (and (and (and (and (and (and (and (and (and (and (and (and (and (and (and (and (and (and (and (and (and (and (and (and (and (and (and (and (and (and (and (and (and (and (and (and (and (and (and (and (and (and (and (and (and (and (and (and (and (and (and (and (and (and (and (and (and (and (and (and (and (and (and (and (and (and (and (and (and (and (and (and (and (and (and (and (and (and (and (and (and (and (and (and (and (and (and (and (and (and (and (and (and (and (and (and (and (and (and (and (and (and (and (and (and (and (and (and (and (and (< x_0 x_1) (< x_0 x_2)) (< x_0 x_3)) (< x_0 x_4)) (< x_0 x_5)) (< x_0 x_6)) (< x_0 x_7)) (< x_0 x_8)) (< x_0 x_69)) (<= x_69 x_1)) (<= x_69 x_2)) (<= x_69 x_3)) (<= x_69 x_4)) (<= x_69 x_5)) (<= x_69 x_6)) (<= x_69 x_7)) (<= x_69 x_8)) (or (or (or (or (or (or (or (= x_69 x_1) (= x_69 x_2)) (= x_69 x_3)) (= x_69 x_4)) (= x_69 x_5)) (= x_69 x_6)) (= x_69 x_7)) (= x_69 x_8))) ?v_68) ?v_13) ?v_20) ?v_27) ?v_34) ?v_41) ?v_48) ?v_55) ?v_5) ?v_14) ?v_21) ?v_28) ?v_35) ?v_42) ?v_49) ?v_56) ?v_4) ?v_15) ?v_22) ?v_29) ?v_36) ?v_43) ?v_50) ?v_57) ?v_69) ?v_16) ?v_23) ?v_30) ?v_37) ?v_44) ?v_51) ?v_58) ?v_10) ?v_17) ?v_24) ?v_31) ?v_38) ?v_45) ?v_52) ?v_59) ?v_9) ?v_18) ?v_25) ?v_32) ?v_39) ?v_46) ?v_53) ?v_60) ?v_11) ?v_19) ?v_26) ?v_33) ?v_40) ?v_47) ?v_54) ?v_61) (= x_70 1)) (= x_71 1)) (= x_72 1)) (= x_73 1)) (= x_74 1)) (= x_75 1)) (= x_76 1)) (= x_77 1)) (= x_78 1)) (= x_79 1)) (= x_80 1)) (= x_81 1)) (= x_82 1)) (= x_83 1)) (= x_84 1)) (= x_85 1)) (= x_86 1)) (= x_87 1)) (= x_88 1)) (= x_89 1)) (= x_90 1)) (= x_91 1)) (= x_92 1)) (= x_93 1)) (= x_94 1)) (= x_95 1)) (= x_96 1)) (= x_97 1)) (= x_98 1)) (= x_99 1)) (= x_100 1)) (= x_101 1)) (= x_102 1)) (= x_103 1)) (= x_104 1)) (= x_105 1)) (= x_106 1)) (= x_107 1)) (= x_108 1)) (= x_109 1)) (= x_110 1)) (= x_111 1)) (= x_112 1)) (= x_113 1)) (= x_114 1)) (= x_115 1)) (= x_116 1)) (= x_117 1)) (= x_118 1)) (= x_119 1)) (= x_120 1)) (= x_121 1)) (= x_122 1)) (= x_123 1)) (= x_124 1)) (= x_125 1)) (= x_126 1)) (= x_127 1)) (= x_128 1)) (= x_129 1)) (= x_130 1)) (= x_131 1)) (= x_132 1)) (= x_133 1)) (and (and (and (and (and (and (and (and (and (and (and (and (and (and (and (and (and (and (and (and (and (and (and (and (and (and (and (and (and (and (and (and (and (and (and (and (and (and (and (and (and (and (and (and (and (and (and (and (and (and (and (and (and (and (and (and (and (and (and (and (and (and (and (and (and (and (and (and (and (and (and (and (and (and (and (and (and (and (and (and (and (and (and (and (and (and (and (and (and (and (and (and (and (and (and (and (and (and (and (and (and (and (and (and (and (and (and (and (and (and (and (and (and (and (and (and (and (and (and (and (and (and (and (and (and (and (and (and (and (or (or (or (or (or (or (or (and (and (and (and (and (and (and (and (and (and (and (and (and (and (and (and (and (and (and (and (and (and (and (and (and (and (and (and (and (and (and (and (and (and (and (and (and (and (and (and (and (and (and (and (and (and (and (and (and (and (and (and (and (= x_0 x_1) (<= ?v_0 x_60)) (<= x_60 ?v_1)) (or (or (and (and (and (and ?v_6 (<= ?v_62 ?v_2)) (<= ?v_2 ?v_64)) ?v_8) ?v_4) (and (and (and ?v_7 (= x_61 ?v_65)) (= x_11 ?v_66)) ?v_5)) (and (and (and ?v_12 ?v_8) ?v_5) ?v_4))) (or (or (and (and (and ?v_6 (= x_25 x_0)) ?v_9) ?v_10) (and (and (and ?v_7 (= x_24 x_0)) (= x_23 (- x_61 1))) ?v_11)) (and (and (and ?v_12 ?v_11) ?v_9) ?v_10))) ?v_13) ?v_14) ?v_15) ?v_16) ?v_17) ?v_18) ?v_19) ?v_20) ?v_21) ?v_22) ?v_23) ?v_24) ?v_25) ?v_26) ?v_27) ?v_28) ?v_29) ?v_30) ?v_31) ?v_32) ?v_33) ?v_34) ?v_35) ?v_36) ?v_37) ?v_38) ?v_39) ?v_40) ?v_41) ?v_42) ?v_43) ?v_44) ?v_45) ?v_46) ?v_47) ?v_48) ?v_49) ?v_50) ?v_51) ?v_52) ?v_53) ?v_54) ?v_55) ?v_56) ?v_57) ?v_58) ?v_59) ?v_60) ?v_61) (and (and (and (and (and (and (and (and (and (and (and (and (and (and (and (and (and (and (and (and (and (and (and (and (and (and (and (and (and (and (and (and (and (and (and (and (and (and (and (and (and (and (and (and (and (and (and (and (and (and (and (and (and (= x_0 x_2) (<= ?v_0 x_62)) (<= x_62 ?v_1)) (or (or (and (and (and (and ?v_6 (<= ?v_62 ?v_63)) (<= ?v_63 ?v_64)) ?v_67) ?v_15) (and (and (and ?v_7 (= x_52 ?v_65)) (= x_12 ?v_66)) ?v_14)) (and (and (and ?v_12 ?v_67) ?v_14) ?v_15))) (or (or (and (and (and ?v_6 (= x_28 x_0)) ?v_18) ?v_17) (and (and (and ?v_7 (= x_27 x_0)) (= x_26 (- x_52 1))) ?v_19)) (and (and (and ?v_12 ?v_19) ?v_18) ?v_17))) ?v_68) ?v_5) ?v_4) ?v_69) ?v_10) ?v_9) ?v_11) ?v_20) ?v_21) ?v_22) ?v_23) ?v_24) ?v_25) ?v_26) ?v_27) ?v_28) ?v_29) ?v_30) ?v_31) ?v_32) ?v_33) ?v_34) ?v_35) ?v_36) ?v_37) ?v_38) ?v_39) ?v_40) ?v_41) ?v_42) ?v_43) ?v_44) ?v_45) ?v_46) ?v_47) ?v_48) ?v_49) ?v_50) ?v_51) ?v_52) ?v_53) ?v_54) ?v_55) ?v_56) ?v_57) ?v_58) ?v_59) ?v_60) ?v_61)) (and (and (and (and (and (and (and (and (and (and (and (and (and (and (and (and (and (and (and (and (and (and (and (and (and (and (and (and (and (and (and (and (and (and (and (and (and (and (and (and (and (and (and (and (and (and (and (and (and (and (and (and (and (= x_0 x_3) (<= ?v_0 x_63)) (<= x_63 ?v_1)) (or (or (and (and (and (and ?v_6 (<= ?v_62 ?v_70)) (<= ?v_70 ?v_64)) ?v_71) ?v_22) (and (and (and ?v_7 (= x_53 ?v_65)) (= x_13 ?v_66)) ?v_21)) (and (and (and ?v_12 ?v_71) ?v_21) ?v_22))) (or (or (and (and (and ?v_6 (= x_31 x_0)) ?v_25) ?v_24) (and (and (and ?v_7 (= x_30 x_0)) (= x_29 (- x_53 1))) ?v_26)) (and (and (and ?v_12 ?v_26) ?v_25) ?v_24))) ?v_68) ?v_5) ?v_4) ?v_69) ?v_10) ?v_9) ?v_11) ?v_13) ?v_14) ?v_15) ?v_16) ?v_17) ?v_18) ?v_19) ?v_27) ?v_28) ?v_29) ?v_30) ?v_31) ?v_32) ?v_33) ?v_34) ?v_35) ?v_36) ?v_37) ?v_38) ?v_39) ?v_40) ?v_41) ?v_42) ?v_43) ?v_44) ?v_45) ?v_46) ?v_47) ?v_48) ?v_49) ?v_50) ?v_51) ?v_52) ?v_53) ?v_54) ?v_55) ?v_56) ?v_57) ?v_58) ?v_59) ?v_60) ?v_61)) (and (and (and (and (and (and (and (and (and (and (and (and (and (and (and (and (and (and (and (and (and (and (and (and (and (and (and (and (and (and (and (and (and (and (and (and (and (and (and (and (and (and (and (and (and (and (and (and (and (and (and (and (and (= x_0 x_4) (<= ?v_0 x_64)) (<= x_64 ?v_1)) (or (or (and (and (and (and ?v_6 (<= ?v_62 ?v_72)) (<= ?v_72 ?v_64)) ?v_73) ?v_29) (and (and (and ?v_7 (= x_54 ?v_65)) (= x_14 ?v_66)) ?v_28)) (and (and (and ?v_12 ?v_73) ?v_28) ?v_29))) (or (or (and (and (and ?v_6 (= x_34 x_0)) ?v_32) ?v_31) (and (and (and ?v_7 (= x_33 x_0)) (= x_32 (- x_54 1))) ?v_33)) (and (and (and ?v_12 ?v_33) ?v_32) ?v_31))) ?v_68) ?v_5) ?v_4) ?v_69) ?v_10) ?v_9) ?v_11) ?v_13) ?v_14) ?v_15) ?v_16) ?v_17) ?v_18) ?v_19) ?v_20) ?v_21) ?v_22) ?v_23) ?v_24) ?v_25) ?v_26) ?v_34) ?v_35) ?v_36) ?v_37) ?v_38) ?v_39) ?v_40) ?v_41) ?v_42) ?v_43) ?v_44) ?v_45) ?v_46) ?v_47) ?v_48) ?v_49) ?v_50) ?v_51) ?v_52) ?v_53) ?v_54) ?v_55) ?v_56) ?v_57) ?v_58) ?v_59) ?v_60) ?v_61)) (and (and (and (and (and (and (and (and (and (and (and (and (and (and (and (and (and (and (and (and (and (and (and (and (and (and (and (and (and (and (and (and (and (and (and (and (and (and (and (and (and (and (and (and (and (and (and (and (and (and (and (and (and (= x_0 x_5) (<= ?v_0 x_65)) (<= x_65 ?v_1)) (or (or (and (and (and (and ?v_6 (<= ?v_62 ?v_74)) (<= ?v_74 ?v_64)) ?v_75) ?v_36) (and (and (and ?v_7 (= x_55 ?v_65)) (= x_15 ?v_66)) ?v_35)) (and (and (and ?v_12 ?v_75) ?v_35) ?v_36))) (or (or (and (and (and ?v_6 (= x_37 x_0)) ?v_39) ?v_38) (and (and (and ?v_7 (= x_36 x_0)) (= x_35 (- x_55 1))) ?v_40)) (and (and (and ?v_12 ?v_40) ?v_39) ?v_38))) ?v_68) ?v_5) ?v_4) ?v_69) ?v_10) ?v_9) ?v_11) ?v_13) ?v_14) ?v_15) ?v_16) ?v_17) ?v_18) ?v_19) ?v_20) ?v_21) ?v_22) ?v_23) ?v_24) ?v_25) ?v_26) ?v_27) ?v_28) ?v_29) ?v_30) ?v_31) ?v_32) ?v_33) ?v_41) ?v_42) ?v_43) ?v_44) ?v_45) ?v_46) ?v_47) ?v_48) ?v_49) ?v_50) ?v_51) ?v_52) ?v_53) ?v_54) ?v_55) ?v_56) ?v_57) ?v_58) ?v_59) ?v_60) ?v_61)) (and (and (and (and (and (and (and (and (and (and (and (and (and (and (and (and (and (and (and (and (and (and (and (and (and (and (and (and (and (and (and (and (and (and (and (and (and (and (and (and (and (and (and (and (and (and (and (and (and (and (and (and (and (= x_0 x_6) (<= ?v_0 x_66)) (<= x_66 ?v_1)) (or (or (and (and (and (and ?v_6 (<= ?v_62 ?v_76)) (<= ?v_76 ?v_64)) ?v_77) ?v_43) (and (and (and ?v_7 (= x_56 ?v_65)) (= x_16 ?v_66)) ?v_42)) (and (and (and ?v_12 ?v_77) ?v_42) ?v_43))) (or (or (and (and (and ?v_6 (= x_40 x_0)) ?v_46) ?v_45) (and (and (and ?v_7 (= x_39 x_0)) (= x_38 (- x_56 1))) ?v_47)) (and (and (and ?v_12 ?v_47) ?v_46) ?v_45))) ?v_68) ?v_5) ?v_4) ?v_69) ?v_10) ?v_9) ?v_11) ?v_13) ?v_14) ?v_15) ?v_16) ?v_17) ?v_18) ?v_19) ?v_20) ?v_21) ?v_22) ?v_23) ?v_24) ?v_25) ?v_26) ?v_27) ?v_28) ?v_29) ?v_30) ?v_31) ?v_32) ?v_33) ?v_34) ?v_35) ?v_36) ?v_37) ?v_38) ?v_39) ?v_40) ?v_48) ?v_49) ?v_50) ?v_51) ?v_52) ?v_53) ?v_54) ?v_55) ?v_56) ?v_57) ?v_58) ?v_59) ?v_60) ?v_61)) (and (and (and (and (and (and (and (and (and (and (and (and (and (and (and (and (and (and (and (and (and (and (and (and (and (and (and (and (and (and (and (and (and (and (and (and (and (and (and (and (and (and (and (and (and (and (and (and (and (and (and (and (and (= x_0 x_7) (<= ?v_0 x_67)) (<= x_67 ?v_1)) (or (or (and (and (and (and ?v_6 (<= ?v_62 ?v_78)) (<= ?v_78 ?v_64)) ?v_79) ?v_50) (and (and (and ?v_7 (= x_57 ?v_65)) (= x_17 ?v_66)) ?v_49)) (and (and (and ?v_12 ?v_79) ?v_49) ?v_50))) (or (or (and (and (and ?v_6 (= x_43 x_0)) ?v_53) ?v_52) (and (and (and ?v_7 (= x_42 x_0)) (= x_41 (- x_57 1))) ?v_54)) (and (and (and ?v_12 ?v_54) ?v_53) ?v_52))) ?v_68) ?v_5) ?v_4) ?v_69) ?v_10) ?v_9) ?v_11) ?v_13) ?v_14) ?v_15) ?v_16) ?v_17) ?v_18) ?v_19) ?v_20) ?v_21) ?v_22) ?v_23) ?v_24) ?v_25) ?v_26) ?v_27) ?v_28) ?v_29) ?v_30) ?v_31) ?v_32) ?v_33) ?v_34) ?v_35) ?v_36) ?v_37) ?v_38) ?v_39) ?v_40) ?v_41) ?v_42) ?v_43) ?v_44) ?v_45) ?v_46) ?v_47) ?v_55) ?v_56) ?v_57) ?v_58) ?v_59) ?v_60) ?v_61)) (and (and (and (and (and (and (and (and (and (and (and (and (and (and (and (and (and (and (and (and (and (and (and (and (and (and (and (and (and (and (and (and (and (and (and (and (and (and (and (and (and (and (and (and (and (and (and (and (and (and (and (and (and (= x_0 x_8) (<= ?v_0 x_58)) (<= x_58 ?v_1)) (or (or (and (and (and (and ?v_6 (<= ?v_62 ?v_80)) (<= ?v_80 ?v_64)) ?v_81) ?v_57) (and (and (and ?v_7 (= x_59 ?v_65)) (= x_18 ?v_66)) ?v_56)) (and (and (and ?v_12 ?v_81) ?v_56) ?v_57))) (or (or (and (and (and ?v_6 (= x_20 x_0)) ?v_60) ?v_59) (and (and (and ?v_7 (= x_21 x_0)) (= x_22 (- x_59 1))) ?v_61)) (and (and (and ?v_12 ?v_61) ?v_60) ?v_59))) ?v_68) ?v_5) ?v_4) ?v_69) ?v_10) ?v_9) ?v_11) ?v_13) ?v_14) ?v_15) ?v_16) ?v_17) ?v_18) ?v_19) ?v_20) ?v_21) ?v_22) ?v_23) ?v_24) ?v_25) ?v_26) ?v_27) ?v_28) ?v_29) ?v_30) ?v_31) ?v_32) ?v_33) ?v_34) ?v_35) ?v_36) ?v_37) ?v_38) ?v_39) ?v_40) ?v_41) ?v_42) ?v_43) ?v_44) ?v_45) ?v_46) ?v_47) ?v_48) ?v_49) ?v_50) ?v_51) ?v_52) ?v_53) ?v_54)) (<= ?v_82 x_70)) (<= ?v_82 x_78)) (<= ?v_82 x_86)) (<= ?v_82 x_94)) (<= ?v_82 x_102)) (<= ?v_82 x_110)) (<= ?v_82 x_118)) (<= ?v_82 x_126)) (<= ?v_83 x_71)) (<= ?v_83 x_79)) (<= ?v_83 x_87)) (<= ?v_83 x_95)) (<= ?v_83 x_103)) (<= ?v_83 x_111)) (<= ?v_83 x_119)) (<= ?v_83 x_127)) (<= ?v_84 x_72)) (<= ?v_84 x_80)) (<= ?v_84 x_88)) (<= ?v_84 x_96)) (<= ?v_84 x_104)) (<= ?v_84 x_112)) (<= ?v_84 x_120)) (<= ?v_84 x_128)) (<= ?v_85 x_73)) (<= ?v_85 x_81)) (<= ?v_85 x_89)) (<= ?v_85 x_97)) (<= ?v_85 x_105)) (<= ?v_85 x_113)) (<= ?v_85 x_121)) (<= ?v_85 x_129)) (<= ?v_86 x_74)) (<= ?v_86 x_82)) (<= ?v_86 x_90)) (<= ?v_86 x_98)) (<= ?v_86 x_106)) (<= ?v_86 x_114)) (<= ?v_86 x_122)) (<= ?v_86 x_130)) (<= ?v_87 x_75)) (<= ?v_87 x_83)) (<= ?v_87 x_91)) (<= ?v_87 x_99)) (<= ?v_87 x_107)) (<= ?v_87 x_115)) (<= ?v_87 x_123)) (<= ?v_87 x_131)) (<= ?v_88 x_76)) (<= ?v_88 x_84)) (<= ?v_88 x_92)) (<= ?v_88 x_100)) (<= ?v_88 x_108)) (<= ?v_88 x_116)) (<= ?v_88 x_124)) (<= ?v_88 x_132)) (<= ?v_89 x_77)) (<= ?v_89 x_85)) (<= ?v_89 x_93)) (<= ?v_89 x_101)) (<= ?v_89 x_109)) (<= ?v_89 x_117)) (<= ?v_89 x_125)) (<= ?v_89 x_133)) (<= x_70 ?v_90)) (<= x_78 ?v_90)) (<= x_86 ?v_90)) (<= x_94 ?v_90)) (<= x_102 ?v_90)) (<= x_110 ?v_90)) (<= x_118 ?v_90)) (<= x_126 ?v_90)) (<= x_71 ?v_91)) (<= x_79 ?v_91)) (<= x_87 ?v_91)) (<= x_95 ?v_91)) (<= x_103 ?v_91)) (<= x_111 ?v_91)) (<= x_119 ?v_91)) (<= x_127 ?v_91)) (<= x_72 ?v_92)) (<= x_80 ?v_92)) (<= x_88 ?v_92)) (<= x_96 ?v_92)) (<= x_104 ?v_92)) (<= x_112 ?v_92)) (<= x_120 ?v_92)) (<= x_128 ?v_92)) (<= x_73 ?v_93)) (<= x_81 ?v_93)) (<= x_89 ?v_93)) (<= x_97 ?v_93)) (<= x_105 ?v_93)) (<= x_113 ?v_93)) (<= x_121 ?v_93)) (<= x_129 ?v_93)) (<= x_74 ?v_94)) (<= x_82 ?v_94)) (<= x_90 ?v_94)) (<= x_98 ?v_94)) (<= x_106 ?v_94)) (<= x_114 ?v_94)) (<= x_122 ?v_94)) (<= x_130 ?v_94)) (<= x_75 ?v_95)) (<= x_83 ?v_95)) (<= x_91 ?v_95)) (<= x_99 ?v_95)) (<= x_107 ?v_95)) (<= x_115 ?v_95)) (<= x_123 ?v_95)) (<= x_131 ?v_95)) (<= x_76 ?v_96)) (<= x_84 ?v_96)) (<= x_92 ?v_96)) (<= x_100 ?v_96)) (<= x_108 ?v_96)) (<= x_116 ?v_96)) (<= x_124 ?v_96)) (<= x_132 ?v_96)) (<= x_77 ?v_97)) (<= x_85 ?v_97)) (<= x_93 ?v_97)) (<= x_101 ?v_97)) (<= x_109 ?v_97)) (<= x_117 ?v_97)) (<= x_125 ?v_97)) (<= x_133 ?v_97)) (= x_69 x_0)))) (or (and (and (and (and (and (and (and (and (and (and (and (and (and (and (and (and (and (and (and (and (and (and (and (and (and (not ?v_99) (not ?v_100)) (not ?v_101)) (not ?v_102)) (not ?v_103)) (not ?v_104)) (not ?v_105)) (not ?v_106)) (= x_134 x_69)) (= x_135 x_61)) (= x_136 x_52)) (= x_137 x_53)) (= x_138 x_54)) (= x_139 x_55)) (= x_140 x_56)) (= x_141 x_57)) (= x_142 x_59)) (= x_143 x_60)) (= x_144 x_62)) (= x_145 x_63)) (= x_146 x_64)) (= x_147 x_65)) (= x_148 x_66)) (= x_149 x_67)) (= x_150 x_58)) (= x_19 ?v_228)) (and (and (and (and (and (and (and (and (and (and (and (and (and (and (and (and (and (and (or (or (or (or (or (or (or ?v_99 ?v_100) ?v_101) ?v_102) ?v_103) ?v_104) ?v_105) ?v_106) (= x_19 ?v_98)) (= x_134 x_0)) (= x_143 x_1)) (= x_144 x_2)) (= x_145 x_3)) (= x_146 x_4)) (= x_147 x_5)) (= x_148 x_6)) (= x_149 x_7)) (= x_150 x_8)) (= x_135 1)) (= x_136 1)) (= x_137 1)) (= x_138 1)) (= x_139 1)) (= x_140 1)) (= x_141 1)) (= x_142 1)))) (or (or (or (or (or (or (or (or (or (or (or (or (or (or (or (or (or (or (or (or (or (or (or (or (or (or (or (or (or (or (or (or (or (or (or (or (or (or (or (or (or (or (or (or (or (or (or (or (or (or (or (or (or (or (or (or (or (or (or (or (or (or (or (or (or (or (or (or (or (or (or (or (or (or (or (or (or (or (or (or (or (or (or (or (or (or (or (or (or (or (or (or (or (or (or (or (or (or (or (or (or (or (or (or (or (or (or (or (or (or (or (or (or (or (or (or (or (or (or (or (or (or (or (or (or (or (or (or (or (or (or (or (or (or (or (or (or (or (or (or (or (or (or (or (or (or (or (or (or (or (or (or (or (or (or (or (or (or (or (or (or (or (or (or (or (or (or (or (or (or (or (or (or (or (or (or (or (or (or (or (or (or (or (or (or (or (or (or (or (or (or (or (or (or (or (or (or (or (or (or (or (or (or (or (or (or (or (or (or (or (or (or (or (or (or (or (or (or (or (or (or (or (or (or (or (or (or (or (or (or (or (or (or (or (or (or (or (or (or (or (or (or (or (or (or (or (or (or (or (or (or (or (or (or (or (or (or (or (or (or (or (or (or (or (or (or (or (or (or (or (or (or (or (not (<= ?v_107 x_135)) (not (<= ?v_107 x_136))) (not (<= ?v_107 x_137))) (not (<= ?v_107 x_138))) (not (<= ?v_107 x_139))) (not (<= ?v_107 x_140))) (not (<= ?v_107 x_141))) (not (<= ?v_107 x_142))) (not (<= x_135 ?v_108))) (not (<= x_136 ?v_108))) (not (<= x_137 ?v_108))) (not (<= x_138 ?v_108))) (not (<= x_139 ?v_108))) (not (<= x_140 ?v_108))) (not (<= x_141 ?v_108))) (not (<= x_142 ?v_108))) (not (<= (- x_135 x_135) x_151))) (not (<= (- x_136 x_135) x_151))) (not (<= (- x_137 x_135) x_151))) (not (<= (- x_138 x_135) x_151))) (not (<= (- x_139 x_135) x_151))) (not (<= (- x_140 x_135) x_151))) (not (<= (- x_141 x_135) x_151))) (not (<= (- x_142 x_135) x_151))) (not (<= (- x_135 x_136) x_151))) (not (<= (- x_136 x_136) x_151))) (not (<= (- x_137 x_136) x_151))) (not (<= (- x_138 x_136) x_151))) (not (<= (- x_139 x_136) x_151))) (not (<= (- x_140 x_136) x_151))) (not (<= (- x_141 x_136) x_151))) (not (<= (- x_142 x_136) x_151))) (not (<= (- x_135 x_137) x_151))) (not (<= (- x_136 x_137) x_151))) (not (<= (- x_137 x_137) x_151))) (not (<= (- x_138 x_137) x_151))) (not (<= (- x_139 x_137) x_151))) (not (<= (- x_140 x_137) x_151))) (not (<= (- x_141 x_137) x_151))) (not (<= (- x_142 x_137) x_151))) (not (<= (- x_135 x_138) x_151))) (not (<= (- x_136 x_138) x_151))) (not (<= (- x_137 x_138) x_151))) (not (<= (- x_138 x_138) x_151))) (not (<= (- x_139 x_138) x_151))) (not (<= (- x_140 x_138) x_151))) (not (<= (- x_141 x_138) x_151))) (not (<= (- x_142 x_138) x_151))) (not (<= (- x_135 x_139) x_151))) (not (<= (- x_136 x_139) x_151))) (not (<= (- x_137 x_139) x_151))) (not (<= (- x_138 x_139) x_151))) (not (<= (- x_139 x_139) x_151))) (not (<= (- x_140 x_139) x_151))) (not (<= (- x_141 x_139) x_151))) (not (<= (- x_142 x_139) x_151))) (not (<= (- x_135 x_140) x_151))) (not (<= (- x_136 x_140) x_151))) (not (<= (- x_137 x_140) x_151))) (not (<= (- x_138 x_140) x_151))) (not (<= (- x_139 x_140) x_151))) (not (<= (- x_140 x_140) x_151))) (not (<= (- x_141 x_140) x_151))) (not (<= (- x_142 x_140) x_151))) (not (<= (- x_135 x_141) x_151))) (not (<= (- x_136 x_141) x_151))) (not (<= (- x_137 x_141) x_151))) (not (<= (- x_138 x_141) x_151))) (not (<= (- x_139 x_141) x_151))) (not (<= (- x_140 x_141) x_151))) (not (<= (- x_141 x_141) x_151))) (not (<= (- x_142 x_141) x_151))) (not (<= (- x_135 x_142) x_151))) (not (<= (- x_136 x_142) x_151))) (not (<= (- x_137 x_142) x_151))) (not (<= (- x_138 x_142) x_151))) (not (<= (- x_139 x_142) x_151))) (not (<= (- x_140 x_142) x_151))) (not (<= (- x_141 x_142) x_151))) (not (<= (- x_142 x_142) x_151))) (and (or ?v_111 (not (<= x_61 ?v_109))) (not ?v_160))) (and (or ?v_112 (not (<= x_52 ?v_109))) (not ?v_164))) (and (or ?v_113 (not (<= x_53 ?v_109))) (not ?v_168))) (and (or ?v_114 (not (<= x_54 ?v_109))) (not ?v_172))) (and (or ?v_115 (not (<= x_55 ?v_109))) (not ?v_176))) (and (or ?v_116 (not (<= x_56 ?v_109))) (not ?v_180))) (and (or ?v_117 (not (<= x_57 ?v_109))) (not ?v_184))) (and (or ?v_118 (not (<= x_59 ?v_109))) (not ?v_188))) (and (and (and (and (and (and (and ?v_111 ?v_112) ?v_113) ?v_114) ?v_115) ?v_116) ?v_117) ?v_118)) (and ?v_119 (or (not (<= (* (* ?v_121 999) (/ 1 1000)) ?v_120)) (not (<= ?v_120 (* (* ?v_121 1001) (/ 1 1000))))))) (and ?v_122 (or (not (<= (* (* ?v_124 999) (/ 1 1000)) ?v_123)) (not (<= ?v_123 (* (* ?v_124 1001) (/ 1 1000))))))) (and ?v_125 (or (not (<= (* (* ?v_127 999) (/ 1 1000)) ?v_126)) (not (<= ?v_126 (* (* ?v_127 1001) (/ 1 1000))))))) (and ?v_128 (or (not (<= (* (* ?v_130 999) (/ 1 1000)) ?v_129)) (not (<= ?v_129 (* (* ?v_130 1001) (/ 1 1000))))))) (and ?v_131 (or (not (<= (* (* ?v_133 999) (/ 1 1000)) ?v_132)) (not (<= ?v_132 (* (* ?v_133 1001) (/ 1 1000))))))) (and ?v_134 (or (not (<= (* (* ?v_136 999) (/ 1 1000)) ?v_135)) (not (<= ?v_135 (* (* ?v_136 1001) (/ 1 1000))))))) (and ?v_137 (or (not (<= (* (* ?v_139 999) (/ 1 1000)) ?v_138)) (not (<= ?v_138 (* (* ?v_139 1001) (/ 1 1000))))))) (and ?v_140 (or (not (<= (* (* ?v_142 999) (/ 1 1000)) ?v_141)) (not (<= ?v_141 (* (* ?v_142 1001) (/ 1 1000))))))) (and (and ?v_119 ?v_159) (or (or (< x_69 x_25) (not (<= (* (* ?v_144 999) (/ 1 1000)) ?v_143))) (not (<= ?v_143 (* (* ?v_144 1001) (/ 1 1000))))))) (and (and ?v_122 ?v_163) (or (or (< x_69 x_28) (not (<= (* (* ?v_146 999) (/ 1 1000)) ?v_145))) (not (<= ?v_145 (* (* ?v_146 1001) (/ 1 1000))))))) (and (and ?v_125 ?v_167) (or (or (< x_69 x_31) (not (<= (* (* ?v_148 999) (/ 1 1000)) ?v_147))) (not (<= ?v_147 (* (* ?v_148 1001) (/ 1 1000))))))) (and (and ?v_128 ?v_171) (or (or (< x_69 x_34) (not (<= (* (* ?v_150 999) (/ 1 1000)) ?v_149))) (not (<= ?v_149 (* (* ?v_150 1001) (/ 1 1000))))))) (and (and ?v_131 ?v_175) (or (or (< x_69 x_37) (not (<= (* (* ?v_152 999) (/ 1 1000)) ?v_151))) (not (<= ?v_151 (* (* ?v_152 1001) (/ 1 1000))))))) (and (and ?v_134 ?v_179) (or (or (< x_69 x_40) (not (<= (* (* ?v_154 999) (/ 1 1000)) ?v_153))) (not (<= ?v_153 (* (* ?v_154 1001) (/ 1 1000))))))) (and (and ?v_137 ?v_183) (or (or (< x_69 x_43) (not (<= (* (* ?v_156 999) (/ 1 1000)) ?v_155))) (not (<= ?v_155 (* (* ?v_156 1001) (/ 1 1000))))))) (and (and ?v_140 ?v_187) (or (or (< x_69 x_20) (not (<= (* (* ?v_158 999) (/ 1 1000)) ?v_157))) (not (<= ?v_157 (* (* ?v_158 1001) (/ 1 1000))))))) (and ?v_191 (or (not (<= x_44 (+ (+ (* (* (+ (+ (+ x_135 (* ?v_161 (/ 1 999))) x_142) (* ?v_162 (/ 1 999))) 1) (/ 1 2)) x_68) (/ 3001 1998)))) (< x_44 (- (- (* (* (+ (+ (+ x_135 (* ?v_161 (/ 1 1001))) x_142) (* ?v_162 (/ 1 1001))) 1) (/ 1 2)) x_68) (/ 1 2)))))) (and ?v_194 (or (not (<= x_45 (+ (+ (* (* (+ (+ (+ x_135 (* ?v_165 (/ 1 999))) x_142) (* ?v_166 (/ 1 999))) 1) (/ 1 2)) x_68) (/ 3001 1998)))) (< x_45 (- (- (* (* (+ (+ (+ x_135 (* ?v_165 (/ 1 1001))) x_142) (* ?v_166 (/ 1 1001))) 1) (/ 1 2)) x_68) (/ 1 2)))))) (and ?v_197 (or (not (<= x_46 (+ (+ (* (* (+ (+ (+ x_135 (* ?v_169 (/ 1 999))) x_142) (* ?v_170 (/ 1 999))) 1) (/ 1 2)) x_68) (/ 3001 1998)))) (< x_46 (- (- (* (* (+ (+ (+ x_135 (* ?v_169 (/ 1 1001))) x_142) (* ?v_170 (/ 1 1001))) 1) (/ 1 2)) x_68) (/ 1 2)))))) (and ?v_200 (or (not (<= x_47 (+ (+ (* (* (+ (+ (+ x_135 (* ?v_173 (/ 1 999))) x_142) (* ?v_174 (/ 1 999))) 1) (/ 1 2)) x_68) (/ 3001 1998)))) (< x_47 (- (- (* (* (+ (+ (+ x_135 (* ?v_173 (/ 1 1001))) x_142) (* ?v_174 (/ 1 1001))) 1) (/ 1 2)) x_68) (/ 1 2)))))) (and ?v_203 (or (not (<= x_48 (+ (+ (* (* (+ (+ (+ x_135 (* ?v_177 (/ 1 999))) x_142) (* ?v_178 (/ 1 999))) 1) (/ 1 2)) x_68) (/ 3001 1998)))) (< x_48 (- (- (* (* (+ (+ (+ x_135 (* ?v_177 (/ 1 1001))) x_142) (* ?v_178 (/ 1 1001))) 1) (/ 1 2)) x_68) (/ 1 2)))))) (and ?v_206 (or (not (<= x_49 (+ (+ (* (* (+ (+ (+ x_135 (* ?v_181 (/ 1 999))) x_142) (* ?v_182 (/ 1 999))) 1) (/ 1 2)) x_68) (/ 3001 1998)))) (< x_49 (- (- (* (* (+ (+ (+ x_135 (* ?v_181 (/ 1 1001))) x_142) (* ?v_182 (/ 1 1001))) 1) (/ 1 2)) x_68) (/ 1 2)))))) (and ?v_209 (or (not (<= x_50 (+ (+ (* (* (+ (+ (+ x_135 (* ?v_185 (/ 1 999))) x_142) (* ?v_186 (/ 1 999))) 1) (/ 1 2)) x_68) (/ 3001 1998)))) (< x_50 (- (- (* (* (+ (+ (+ x_135 (* ?v_185 (/ 1 1001))) x_142) (* ?v_186 (/ 1 1001))) 1) (/ 1 2)) x_68) (/ 1 2)))))) (and ?v_212 (or (not (<= x_51 (+ (+ (* (* (+ (+ (+ x_135 (* ?v_189 (/ 1 999))) x_142) (* ?v_190 (/ 1 999))) 1) (/ 1 2)) x_68) (/ 3001 1998)))) (< x_51 (- (- (* (* (+ (+ (+ x_135 (* ?v_189 (/ 1 1001))) x_142) (* ?v_190 (/ 1 1001))) 1) (/ 1 2)) x_68) (/ 1 2)))))) (and ?v_191 (or (not (<= (* (* ?v_193 999) (/ 1 1000)) ?v_192)) (not (<= ?v_192 (* (* ?v_193 1001) (/ 1 1000))))))) (and ?v_194 (or (not (<= (* (* ?v_196 999) (/ 1 1000)) ?v_195)) (not (<= ?v_195 (* (* ?v_196 1001) (/ 1 1000))))))) (and ?v_197 (or (not (<= (* (* ?v_199 999) (/ 1 1000)) ?v_198)) (not (<= ?v_198 (* (* ?v_199 1001) (/ 1 1000))))))) (and ?v_200 (or (not (<= (* (* ?v_202 999) (/ 1 1000)) ?v_201)) (not (<= ?v_201 (* (* ?v_202 1001) (/ 1 1000))))))) (and ?v_203 (or (not (<= (* (* ?v_205 999) (/ 1 1000)) ?v_204)) (not (<= ?v_204 (* (* ?v_205 1001) (/ 1 1000))))))) (and ?v_206 (or (not (<= (* (* ?v_208 999) (/ 1 1000)) ?v_207)) (not (<= ?v_207 (* (* ?v_208 1001) (/ 1 1000))))))) (and ?v_209 (or (not (<= (* (* ?v_211 999) (/ 1 1000)) ?v_210)) (not (<= ?v_210 (* (* ?v_211 1001) (/ 1 1000))))))) (and ?v_212 (or (not (<= (* (* ?v_214 999) (/ 1 1000)) ?v_213)) (not (<= ?v_213 (* (* ?v_214 1001) (/ 1 1000))))))) (and ?v_160 (not (= x_23 (+ x_44 x_10))))) (and ?v_164 (not (= x_26 (+ x_45 x_10))))) (and ?v_168 (not (= x_29 (+ x_46 x_10))))) (and ?v_172 (not (= x_32 (+ x_47 x_10))))) (and ?v_176 (not (= x_35 (+ x_48 x_10))))) (and ?v_180 (not (= x_38 (+ x_49 x_10))))) (and ?v_184 (not (= x_41 (+ x_50 x_10))))) (and ?v_188 (not (= x_22 (+ x_51 x_10))))) (and ?v_160 (or (not (<= ?v_216 ?v_215)) (not (<= ?v_215 ?v_218))))) (and ?v_164 (or (not (<= ?v_216 ?v_217)) (not (<= ?v_217 ?v_218))))) (and ?v_168 (or (not (<= ?v_216 ?v_219)) (not (<= ?v_219 ?v_218))))) (and ?v_172 (or (not (<= ?v_216 ?v_220)) (not (<= ?v_220 ?v_218))))) (and ?v_176 (or (not (<= ?v_216 ?v_221)) (not (<= ?v_221 ?v_218))))) (and ?v_180 (or (not (<= ?v_216 ?v_222)) (not (<= ?v_222 ?v_218))))) (and ?v_184 (or (not (<= ?v_216 ?v_223)) (not (<= ?v_223 ?v_218))))) (and ?v_188 (or (not (<= ?v_216 ?v_224)) (not (<= ?v_224 ?v_218))))) ?v_225) ?v_225) ?v_225) ?v_225) ?v_225) ?v_225) ?v_225) ?v_225) ?v_226) ?v_226) ?v_226) ?v_226) ?v_226) ?v_226) ?v_226) ?v_226) ?v_227) ?v_227) ?v_227) ?v_227) ?v_227) ?v_227) ?v_227) ?v_227) ?v_227) ?v_227) ?v_227) ?v_227) ?v_227) ?v_227) ?v_227) ?v_227) ?v_227) ?v_227) ?v_227) ?v_227) ?v_227) ?v_227) ?v_227) ?v_227) ?v_227) ?v_227) ?v_227) ?v_227) ?v_227) ?v_227) ?v_227) ?v_227) ?v_227) ?v_227) ?v_227) ?v_227) ?v_227) ?v_227) ?v_227) ?v_227) ?v_227) ?v_227) ?v_227) ?v_227) ?v_227) ?v_227) ?v_227) ?v_227) ?v_227) ?v_227) ?v_227) ?v_227) ?v_227) ?v_227) ?v_227) ?v_227) ?v_227) ?v_227) ?v_227) ?v_227) ?v_227) ?v_227) ?v_227) ?v_227) ?v_229) ?v_229) ?v_229) ?v_229) ?v_229) ?v_229) ?v_229) ?v_229) (and (and (and (and (and (and (and ?v_230 ?v_230) ?v_230) ?v_230) ?v_230) ?v_230) ?v_230) ?v_230)) (and ?v_231 (or (not (<= ?v_234 ?v_233)) (not (<= ?v_233 ?v_236))))) (and ?v_231 (or (not (<= ?v_234 ?v_235)) (not (<= ?v_235 ?v_236))))) (and ?v_231 (or (not (<= ?v_234 ?v_237)) (not (<= ?v_237 ?v_236))))) (and ?v_231 (or (not (<= ?v_234 ?v_238)) (not (<= ?v_238 ?v_236))))) (and ?v_231 (or (not (<= ?v_234 ?v_239)) (not (<= ?v_239 ?v_236))))) (and ?v_231 (or (not (<= ?v_234 ?v_240)) (not (<= ?v_240 ?v_236))))) (and ?v_231 (or (not (<= ?v_234 ?v_241)) (not (<= ?v_241 ?v_236))))) (and ?v_231 (or (not (<= ?v_234 ?v_242)) (not (<= ?v_242 ?v_236))))) (and ?v_245 (or (or ?v_246 (not (<= ?v_247 ?v_243))) (not (<= ?v_243 ?v_249))))) (and ?v_245 (or (or ?v_246 (not (<= ?v_247 ?v_248))) (not (<= ?v_248 ?v_249))))) (and ?v_245 (or (or ?v_246 (not (<= ?v_247 ?v_250))) (not (<= ?v_250 ?v_249))))) (and ?v_245 (or (or ?v_246 (not (<= ?v_247 ?v_251))) (not (<= ?v_251 ?v_249))))) (and ?v_245 (or (or ?v_246 (not (<= ?v_247 ?v_252))) (not (<= ?v_252 ?v_249))))) (and ?v_245 (or (or ?v_246 (not (<= ?v_247 ?v_253))) (not (<= ?v_253 ?v_249))))) (and ?v_245 (or (or ?v_246 (not (<= ?v_247 ?v_254))) (not (<= ?v_254 ?v_249))))) (and ?v_245 (or (or ?v_246 (not (<= ?v_247 ?v_255))) (not (<= ?v_255 ?v_249))))) ?v_260) ?v_260) ?v_260) ?v_260) ?v_260) ?v_260) ?v_260) ?v_260) (and ?v_261 (or (not (<= ?v_264 ?v_262)) (not (<= ?v_262 ?v_266))))) (and ?v_261 (or (not (<= ?v_264 ?v_265)) (not (<= ?v_265 ?v_266))))) (and ?v_261 (or (not (<= ?v_264 ?v_267)) (not (<= ?v_267 ?v_266))))) (and ?v_261 (or (not (<= ?v_264 ?v_268)) (not (<= ?v_268 ?v_266))))) (and ?v_261 (or (not (<= ?v_264 ?v_269)) (not (<= ?v_269 ?v_266))))) (and ?v_261 (or (not (<= ?v_264 ?v_270)) (not (<= ?v_270 ?v_266))))) (and ?v_261 (or (not (<= ?v_264 ?v_271)) (not (<= ?v_271 ?v_266))))) (and ?v_261 (or (not (<= ?v_264 ?v_272)) (not (<= ?v_272 ?v_266))))) ?v_274) ?v_274) ?v_274) ?v_274) ?v_274) ?v_274) ?v_274) ?v_274) ?v_276) ?v_276) ?v_276) ?v_276) ?v_276) ?v_276) ?v_276) ?v_276))))))))))))))))))))))))))))
(check-sat)
(exit)
